
List of user-set options:

                                    Name   Value                used
                         derivative_test = first-order           yes
                        file_print_level = 5                     yes
                   hessian_approximation = limited-memory        yes
                                  hsllib = /home/ggs24/packages/ThirdParty-HSL/.libs/libcoinhsl.so  yes
                           linear_solver = ma97                  yes
                                max_iter = 500                   yes
                             output_file = IPOPT.out             yes
                             print_level = 0                     yes
                      print_user_options = yes                   yes
                                      sb = yes                   yes
This is Ipopt version 3.14.7, running with linear solver ma97.

Starting derivative checker for first derivatives.

* jac_g [   28,    1] = -2.3951200393935610e-04 v  ~ -2.3946508666280151e-04  [ 1.959e-04]
* jac_g [   49,    2] = -2.4784652513478039e-05 v  ~ -2.4768538250956535e-05  [ 1.611e-04]
* jac_g [  447,    4] = -6.7747316787074505e-05 v  ~ -6.7731657081266899e-05  [ 1.566e-04]
* jac_g [  129,    8] = -1.4659285043767451e-15 v  ~  1.6045458612086756e-08  [ 1.605e-04]
* jac_g [   56,   11] =  1.8318073784992747e-04 v  ~  1.8314239014216582e-04  [ 2.094e-04]
* jac_g [  129,   12] = -1.9545713391689937e-15 v  ~  2.6581772447723861e-08  [ 2.658e-04]

Derivative checker detected 6 error(s).

Number of nonzeros in equality constraint Jacobian...:       68
Number of nonzeros in inequality constraint Jacobian.:     8568
Number of nonzeros in Lagrangian Hessian.............:        0

Total number of variables............................:       17
                     variables with only lower bounds:        1
                variables with lower and upper bounds:        0
                     variables with only upper bounds:        0
Total number of equality constraints.................:        4
Total number of inequality constraints...............:      504
        inequality constraints with only lower bounds:        0
   inequality constraints with lower and upper bounds:      504
        inequality constraints with only upper bounds:        0

iter    objective    inf_pr   inf_du lg(mu)  ||d||  lg(rg) alpha_du alpha_pr  ls
   0  8.6763925e+00 5.12e-05 0.00e+00   0.0 0.00e+00    -  0.00e+00 0.00e+00   0
   1  8.6569111e+00 2.48e-05 2.93e-01  -6.2 2.84e-02    -  6.86e-01 9.70e-01h  1
   2  8.6154812e+00 1.48e-04 1.44e-01  -6.7 8.58e-02    -  6.19e-01 6.75e-01h  1
   3  8.4878972e+00 1.70e-03 3.10e-01  -7.2 1.87e-01    -  3.15e-01 9.90e-01h  1
   4  8.4322455e+00 1.32e-03 1.54e-01  -7.3 1.93e-01    -  5.10e-01 5.26e-01h  1
   5  8.4241021e+00 1.25e-03 6.64e-01  -7.6 2.66e-01    -  1.83e-01 5.92e-02h  1
   6  8.3814999e+00 1.24e-03 7.54e-01  -7.7 2.89e-01    -  2.30e-03 2.88e-01h  1
   7  8.3180248e+00 1.52e-03 3.40e-01  -7.7 2.51e-01    -  4.93e-01 5.46e-01h  1
   8  8.3147675e+00 1.47e-03 1.22e+00  -8.0 2.38e-01    -  4.53e-01 3.55e-02h  1
   9  8.2956867e+00 1.33e-03 5.47e-01  -8.3 2.76e-01    -  3.96e-03 1.79e-01h  1
iter    objective    inf_pr   inf_du lg(mu)  ||d||  lg(rg) alpha_du alpha_pr  ls
  10  8.2859717e+00 1.21e-03 4.93e-01  -8.3 2.42e-01    -  4.51e-01 1.13e-01h  1
  11  8.2382201e+00 1.47e-03 4.27e-01  -8.5 2.45e-01    -  6.96e-03 5.64e-01h  1
  12  8.2345788e+00 1.30e-03 3.50e-01  -8.5 1.25e-01    -  3.17e-01 1.25e-01h  1
  13  8.2304281e+00 1.09e-03 2.91e-01  -8.7 1.09e-01    -  2.65e-01 1.70e-01h  1
  14  8.2284108e+00 9.66e-04 4.78e-01  -8.8 8.14e-02    -  2.02e-01 1.19e-01h  1
  15  8.2281889e+00 9.52e-04 1.93e+00  -5.0 1.40e-01    -  9.08e-03 1.40e-02f  1
  16  8.2270284e+00 8.69e-04 1.74e+00  -8.9 6.59e-02    -  7.91e-02 8.89e-02h  1
  17  8.2246879e+00 6.86e-04 1.82e+00  -9.0 5.69e-02    -  4.67e-01 2.17e-01h  1
  18  8.2236682e+00 5.51e-04 1.41e+00  -9.3 3.48e-02    -  1.71e-01 1.99e-01h  1
  19  8.2228179e+00 3.87e-04 1.66e+00  -9.3 2.65e-02    -  6.95e-01 3.00e-01h  1
iter    objective    inf_pr   inf_du lg(mu)  ||d||  lg(rg) alpha_du alpha_pr  ls
  20  8.2227910e+00 1.90e-04 1.40e+01  -5.9 1.67e-02    -  3.23e-01 5.03e-01h  1
  21  8.2231439e+00 1.51e-04 1.23e+00  -6.1 8.57e-03    -  6.69e-01 4.53e-01h  1
  22  8.2238091e+00 8.88e-16 1.12e+00  -5.7 2.24e-03    -  9.91e-01 1.00e+00h  1
  23  8.2237857e+00 1.11e-16 7.68e+01  -6.4 3.88e-03    -  1.00e+00 4.35e-01h  1
  24  8.2237678e+00 3.38e-08 3.20e+01  -7.3 1.32e-03    -  8.86e-01 6.80e-01h  1
  25  8.2237667e+00 6.12e-08 2.84e+01  -8.0 1.26e-03    -  1.00e+00 3.00e-01h  1
  26  8.2237641e+00 1.26e-07 1.11e+00  -8.0 2.24e-03    -  1.00e+00 9.61e-01h  1
  27  8.2237640e+00 5.70e-08 1.48e-04  -8.0 1.64e-03    -  1.00e+00 1.00e+00f  1
  28  8.2237638e+00 1.84e-07 7.72e-05  -8.5 1.40e-03    -  1.00e+00 1.00e+00h  1
  29  8.2237639e+00 2.62e-08 8.11e-06  -8.5 4.23e-04    -  1.00e+00 9.91e-01h  1
iter    objective    inf_pr   inf_du lg(mu)  ||d||  lg(rg) alpha_du alpha_pr  ls
  30  8.2237639e+00 4.93e-10 8.40e-07  -9.8 1.63e-05    -  1.00e+00 9.82e-01h  1
  31  8.2237639e+00 8.88e-16 1.14e-07 -11.0 5.71e-06    -  1.00e+00 1.00e+00h  1
  32  8.2237639e+00 2.22e-16 3.54e-08 -11.0 5.86e-07    -  1.00e+00 1.00e+00h  1
  33  8.2237639e+00 4.44e-16 1.77e-09 -11.0 1.22e-07    -  1.00e+00 1.00e+00h  1

Number of Iterations....: 33

                                   (scaled)                 (unscaled)
Objective...............:   8.2237639180861155e+00    8.2237639180861155e+00
Dual infeasibility......:   1.7714652557343502e-09    1.7714652557343502e-09
Constraint violation....:   4.4408920985006262e-16    4.4408920985006262e-16
Variable bound violation:   0.0000000000000000e+00    0.0000000000000000e+00
Complementarity.........:   1.0000155300368415e-11    1.0000155300368415e-11
Overall NLP error.......:   1.7714652557343502e-09    1.7714652557343502e-09


Number of objective function evaluations             = 34
Number of objective gradient evaluations             = 34
Number of equality constraint evaluations            = 34
Number of inequality constraint evaluations          = 34
Number of equality constraint Jacobian evaluations   = 34
Number of inequality constraint Jacobian evaluations = 34
Number of Lagrangian Hessian evaluations             = 0
Total seconds in IPOPT                               = 0.751

EXIT: Optimal Solution Found.
